
data;

param n := 52;

param : E : c :=
0 1 167.00
0 2 70.00
0 3 99.00
0 4 73.00
0 5 82.00
0 6 160.00
0 7 107.00
0 8 150.00
0 9 140.00
0 10 260.00
0 11 164.00
0 12 244.00
0 13 280.00
0 14 75.00
0 15 65.00
0 16 107.00
0 17 40.00
0 18 76.00
0 19 53.00
0 20 72.00
0 21 12.00
0 22 45.00
0 23 69.00
0 24 103.00
0 25 182.00
0 26 200.00
0 27 177.00
0 28 102.00
0 29 90.00
0 30 37.00
0 31 23.00
0 32 207.00
0 33 34.00
0 34 30.00
0 35 31.00
0 36 52.00
0 37 60.00
0 38 42.00
0 39 52.00
0 40 99.00
0 41 141.00
0 42 116.00
0 43 39.00
0 44 60.00
0 45 70.00
0 46 198.00
0 47 67.00
0 48 16.00
0 49 54.00
0 50 197.00
0 51 305.00
1 0 167.00
1 2 162.00
1 3 262.00
1 4 236.00
1 5 245.00
1 6 11.00
1 7 239.00
1 8 284.00
1 9 283.00
1 10 410.00
1 11 315.00
1 12 360.00
1 13 379.00
1 14 239.00
1 15 181.00
1 16 124.00
1 17 149.00
1 18 211.00
1 19 141.00
1 20 98.00
1 21 159.00
1 22 127.00
1 23 230.00
1 24 257.00
1 25 298.00
1 26 325.00
1 27 311.00
1 28 159.00
1 29 98.00
1 30 135.00
1 31 182.00
1 32 372.00
1 33 196.00
1 34 194.00
1 35 196.00
1 36 214.00
1 37 224.00
1 38 207.00
1 39 217.00
1 40 224.00
1 41 26.00
1 42 281.00
1 43 186.00
1 44 206.00
1 45 215.00
1 46 288.00
1 47 228.00
1 48 182.00
1 49 149.00
1 50 355.00
1 51 429.00
2 0 70.00
2 1 162.00
2 3 151.00
2 4 127.00
2 5 136.00
2 6 153.00
2 7 77.00
2 8 121.00
2 9 122.00
2 10 317.00
2 11 223.00
2 12 312.00
2 13 350.00
2 14 126.00
2 15 134.00
2 16 54.00
2 17 34.00
2 18 52.00
2 19 110.00
2 20 72.00
2 21 60.00
2 22 90.00
2 23 126.00
2 24 163.00
2 25 251.00
2 26 267.00
2 27 243.00
2 28 163.00
2 29 126.00
2 30 52.00
2 31 61.00
2 32 226.00
2 33 98.00
2 34 93.00
2 35 92.00
2 36 112.00
2 37 116.00
2 38 98.00
2 39 107.00
2 40 62.00
2 41 138.00
2 42 139.00
2 43 109.00
2 44 55.00
2 45 138.00
2 46 268.00
2 47 126.00
2 48 72.00
2 49 116.00
2 50 249.00
2 51 371.00
3 0 99.00
3 1 262.00
3 2 151.00
3 4 26.00
3 5 17.00
3 6 257.00
3 7 131.00
3 8 153.00
3 9 133.00
3 10 166.00
3 11 74.00
3 12 178.00
3 13 224.00
3 14 25.00
3 15 96.00
3 16 200.00
3 17 133.00
3 18 119.00
3 19 125.00
3 20 170.00
3 21 109.00
3 22 134.00
3 23 31.00
3 24 27.00
3 25 129.00
3 26 132.00
3 27 104.00
3 28 145.00
3 29 172.00
3 30 135.00
3 31 93.00
3 32 129.00
3 33 67.00
3 34 69.00
3 35 68.00
3 36 48.00
3 37 39.00
3 38 58.00
3 39 47.00
3 40 136.00
3 41 238.00
3 42 61.00
3 43 77.00
3 44 103.00
3 45 58.00
3 46 165.00
3 47 34.00
3 48 86.00
3 49 119.00
3 50 99.00
3 51 227.00
4 0 73.00
4 1 236.00
4 2 127.00
4 3 26.00
4 5 9.00
4 6 231.00
4 7 118.00
4 8 146.00
4 9 128.00
4 10 190.00
4 11 96.00
4 12 192.00
4 13 236.00
4 14 6.00
4 15 77.00
4 16 175.00
4 17 108.00
4 18 100.00
4 19 102.00
4 20 144.00
4 21 83.00
4 22 109.00
4 23 8.00
4 24 38.00
4 25 138.00
4 26 146.00
4 27 120.00
4 28 127.00
4 29 149.00
4 30 109.00
4 31 68.00
4 32 147.00
4 33 41.00
4 34 43.00
4 35 42.00
4 36 22.00
4 37 13.00
4 38 32.00
4 39 21.00
4 40 120.00
4 41 212.00
4 42 67.00
4 43 53.00
4 44 83.00
4 45 43.00
4 46 168.00
4 47 12.00
4 48 60.00
4 49 97.00
4 50 125.00
4 51 246.00
5 0 82.00
5 1 245.00
5 2 136.00
5 3 17.00
5 4 9.00
5 6 239.00
5 7 123.00
5 8 149.00
5 9 131.00
5 10 182.00
5 11 87.00
5 12 186.00
5 13 231.00
5 14 10.00
5 15 82.00
5 16 184.00
5 17 116.00
5 18 107.00
5 19 109.00
5 20 153.00
5 21 92.00
5 22 117.00
5 23 14.00
5 24 31.00
5 25 133.00
5 26 140.00
5 27 113.00
5 28 132.00
5 29 156.00
5 30 118.00
5 31 76.00
5 32 142.00
5 33 49.00
5 34 51.00
5 35 50.00
5 36 30.00
5 37 22.00
5 38 40.00
5 39 30.00
5 40 126.00
5 41 220.00
5 42 65.00
5 43 60.00
5 44 90.00
5 45 46.00
5 46 165.00
5 47 18.00
5 48 69.00
5 49 103.00
5 50 116.00
5 51 239.00
6 0 160.00
6 1 11.00
6 2 153.00
6 3 257.00
6 4 231.00
6 5 239.00
6 7 230.00
6 8 274.00
6 9 274.00
6 10 407.00
6 11 311.00
6 12 360.00
6 13 380.00
6 14 234.00
6 15 178.00
6 16 113.00
6 17 141.00
6 18 202.00
6 19 138.00
6 20 90.00
6 21 152.00
6 22 123.00
6 23 225.00
6 24 253.00
6 25 298.00
6 26 324.00
6 27 309.00
6 28 159.00
6 29 96.00
6 30 128.00
6 31 175.00
6 32 365.00
6 33 190.00
6 34 189.00
6 35 190.00
6 36 209.00
6 37 219.00
6 38 201.00
6 39 212.00
6 40 214.00
6 41 19.00
6 42 274.00
6 43 182.00
6 44 197.00
6 45 211.00
6 46 289.00
6 47 223.00
6 48 175.00
6 49 146.00
6 50 351.00
6 51 429.00
7 0 107.00
7 1 239.00
7 2 77.00
7 3 131.00
7 4 118.00
7 5 123.00
7 6 230.00
7 8 46.00
7 9 45.00
7 10 286.00
7 11 203.00
7 12 309.00
7 13 354.00
7 14 113.00
7 15 165.00
7 16 127.00
7 17 95.00
7 18 31.00
7 19 159.00
7 20 145.00
7 21 104.00
7 22 147.00
7 23 122.00
7 24 154.00
7 25 256.00
7 26 262.00
7 27 235.00
7 28 208.00
7 29 190.00
7 30 114.00
7 31 85.00
7 32 161.00
7 33 114.00
7 34 109.00
7 35 105.00
7 36 115.00
7 37 112.00
7 38 103.00
7 39 105.00
7 40 16.00
7 41 214.00
7 42 90.00
7 43 132.00
7 44 47.00
7 45 150.00
7 46 284.00
7 47 124.00
7 48 96.00
7 49 161.00
7 50 215.00
7 51 358.00
8 0 150.00
8 1 284.00
8 2 121.00
8 3 153.00
8 4 146.00
8 5 149.00
8 6 274.00
8 7 46.00
8 9 21.00
8 10 291.00
8 11 218.00
8 12 329.00
8 13 377.00
8 14 140.00
8 15 204.00
8 16 168.00
8 17 141.00
8 18 77.00
8 19 203.00
8 20 191.00
8 21 148.00
8 22 192.00
8 23 152.00
8 24 179.00
8 25 282.00
8 26 284.00
8 27 256.00
8 28 250.00
8 29 235.00
8 30 160.00
8 31 128.00
8 32 143.00
8 33 152.00
8 34 147.00
8 35 144.00
8 36 149.00
8 37 143.00
8 38 139.00
8 39 139.00
8 40 60.00
8 41 259.00
8 42 97.00
8 43 171.00
8 44 90.00
8 45 183.00
8 46 314.00
8 47 154.00
8 48 138.00
8 49 204.00
8 50 221.00
8 51 372.00
9 0 140.00
9 1 283.00
9 2 122.00
9 3 133.00
9 4 128.00
9 5 131.00
9 6 274.00
9 7 45.00
9 8 21.00
9 10 271.00
9 11 198.00
9 12 309.00
9 13 357.00
9 14 123.00
9 15 191.00
9 16 172.00
9 17 137.00
9 18 73.00
9 19 193.00
9 20 188.00
9 21 140.00
9 22 184.00
9 23 134.00
9 24 160.00
9 25 262.00
9 26 264.00
9 27 236.00
9 28 238.00
9 29 228.00
9 30 155.00
9 31 118.00
9 32 125.00
9 33 138.00
9 34 134.00
9 35 130.00
9 36 133.00
9 37 127.00
9 38 125.00
9 39 123.00
9 40 61.00
9 41 258.00
9 42 77.00
9 43 158.00
9 44 82.00
9 45 167.00
9 46 296.00
9 47 138.00
9 48 127.00
9 49 193.00
9 50 200.00
9 51 351.00
10 0 260.00
10 1 410.00
10 2 317.00
10 3 166.00
10 4 190.00
10 5 182.00
10 6 407.00
10 7 286.00
10 8 291.00
10 9 271.00
10 11 97.00
10 12 111.00
10 13 155.00
10 14 191.00
10 15 229.00
10 16 365.00
10 17 298.00
10 18 281.00
10 19 269.00
10 20 329.00
10 21 271.00
10 22 286.00
10 23 193.00
10 24 158.00
10 25 135.00
10 26 104.00
10 27 104.00
10 28 261.00
10 29 313.00
10 30 297.00
10 31 258.00
10 32 177.00
10 33 226.00
10 34 230.00
10 35 230.00
10 36 209.00
10 37 203.00
10 38 221.00
10 39 211.00
10 40 295.00
10 41 388.00
10 42 197.00
10 43 228.00
10 44 267.00
10 45 197.00
10 46 176.00
10 47 194.00
10 48 250.00
10 49 261.00
10 50 71.00
10 51 100.00
11 0 164.00
11 1 315.00
11 2 223.00
11 3 74.00
11 4 96.00
11 5 87.00
11 6 311.00
11 7 203.00
11 8 218.00
11 9 198.00
11 10 97.00
11 12 113.00
11 13 163.00
11 14 97.00
11 15 134.00
11 16 270.00
11 17 202.00
11 18 192.00
11 19 174.00
11 20 232.00
11 21 175.00
11 22 190.00
11 23 97.00
11 24 61.00
11 25 84.00
11 26 71.00
11 27 46.00
11 28 172.00
11 29 219.00
11 30 200.00
11 31 163.00
11 32 146.00
11 33 130.00
11 34 134.00
11 35 134.00
11 36 113.00
11 37 107.00
11 38 126.00
11 39 116.00
11 40 209.00
11 41 292.00
11 42 121.00
11 43 132.00
11 44 176.00
11 45 100.00
11 46 129.00
11 47 98.00
11 48 154.00
11 49 166.00
11 50 47.00
11 51 155.00
12 0 244.00
12 1 360.00
12 2 312.00
12 3 178.00
12 4 192.00
12 5 186.00
12 6 360.00
12 7 309.00
12 8 329.00
12 9 309.00
12 10 111.00
12 11 113.00
12 13 51.00
12 14 196.00
12 15 190.00
12 16 350.00
12 17 284.00
12 18 292.00
12 19 230.00
12 20 299.00
12 21 255.00
12 22 252.00
12 23 190.00
12 24 155.00
12 25 64.00
12 26 46.00
12 27 73.00
12 28 201.00
12 29 264.00
12 30 276.00
12 31 251.00
12 32 253.00
12 33 214.00
12 34 219.00
12 35 220.00
12 36 202.00
12 37 201.00
12 38 216.00
12 39 209.00
12 40 312.00
12 41 343.00
12 42 233.00
12 43 205.00
12 44 275.00
12 45 174.00
12 46 81.00
12 47 189.00
12 48 240.00
12 49 221.00
12 50 135.00
12 51 70.00
13 0 280.00
13 1 379.00
13 2 350.00
13 3 224.00
13 4 236.00
13 5 231.00
13 6 380.00
13 7 354.00
13 8 377.00
13 9 357.00
13 10 155.00
13 11 163.00
13 12 51.00
13 14 240.00
13 15 221.00
13 16 384.00
13 17 320.00
13 18 335.00
13 19 259.00
13 20 328.00
13 21 291.00
13 22 282.00
13 23 233.00
13 24 200.00
13 25 99.00
13 26 94.00
13 27 121.00
13 28 222.00
13 29 287.00
13 30 310.00
13 31 290.00
13 32 304.00
13 33 252.00
13 34 258.00
13 35 260.00
13 36 243.00
13 37 244.00
13 38 257.00
13 39 251.00
13 40 356.00
13 41 364.00
13 42 281.00
13 43 242.00
13 44 317.00
13 45 212.00
13 46 91.00
13 47 231.00
13 48 278.00
13 49 250.00
13 50 186.00
13 51 80.00
14 0 75.00
14 1 239.00
14 2 126.00
14 3 25.00
14 4 6.00
14 5 10.00
14 6 234.00
14 7 113.00
14 8 140.00
14 9 123.00
14 10 191.00
14 11 97.00
14 12 196.00
14 13 240.00
14 15 83.00
14 16 175.00
14 17 108.00
14 18 97.00
14 19 106.00
14 20 146.00
14 21 85.00
14 22 113.00
14 23 14.00
14 24 41.00
14 25 143.00
14 26 150.00
14 27 123.00
14 28 133.00
14 29 153.00
14 30 111.00
14 31 68.00
14 32 142.00
14 33 44.00
14 34 45.00
14 35 44.00
14 36 26.00
14 37 15.00
14 38 33.00
14 39 23.00
14 40 116.00
14 41 215.00
14 42 60.00
14 43 58.00
14 44 80.00
14 45 49.00
14 46 174.00
14 47 18.00
14 48 62.00
14 49 102.00
14 50 124.00
14 51 249.00
15 0 65.00
15 1 181.00
15 2 134.00
15 3 96.00
15 4 77.00
15 5 82.00
15 6 178.00
15 7 165.00
15 8 204.00
15 9 191.00
15 10 229.00
15 11 134.00
15 12 190.00
15 13 221.00
15 14 83.00
15 16 163.00
15 17 102.00
15 18 137.00
15 19 41.00
15 20 109.00
15 21 74.00
15 22 62.00
15 23 69.00
15 24 82.00
15 25 126.00
15 26 149.00
15 27 131.00
15 28 50.00
15 29 84.00
15 30 89.00
15 31 83.00
15 32 224.00
15 33 53.00
15 34 57.00
15 35 61.00
15 36 61.00
15 37 71.00
15 38 66.00
15 39 71.00
15 40 160.00
15 41 160.00
15 42 143.00
15 43 33.00
15 44 119.00
15 45 39.00
15 46 135.00
15 47 65.00
15 48 70.00
15 49 33.00
15 50 178.00
15 51 256.00
16 0 107.00
16 1 124.00
16 2 54.00
16 3 200.00
16 4 175.00
16 5 184.00
16 6 113.00
16 7 127.00
16 8 168.00
16 9 172.00
16 10 365.00
16 11 270.00
16 12 350.00
16 13 384.00
16 14 175.00
16 15 163.00
16 17 68.00
16 18 105.00
16 19 128.00
16 20 63.00
16 21 96.00
16 22 105.00
16 23 173.00
16 24 209.00
16 25 287.00
16 26 307.00
16 27 284.00
16 28 177.00
16 29 123.00
16 30 74.00
16 31 108.00
16 32 280.00
16 33 140.00
16 34 136.00
16 35 136.00
16 36 157.00
16 37 163.00
16 38 144.00
16 39 154.00
16 40 111.00
16 41 102.00
16 42 193.00
16 43 145.00
16 44 109.00
16 45 177.00
16 46 297.00
16 47 172.00
16 48 115.00
16 49 136.00
16 50 299.00
16 51 412.00
17 0 40.00
17 1 149.00
17 2 34.00
17 3 133.00
17 4 108.00
17 5 116.00
17 6 141.00
17 7 95.00
17 8 141.00
17 9 137.00
17 10 298.00
17 11 202.00
17 12 284.00
17 13 320.00
17 14 108.00
17 15 102.00
17 16 68.00
17 18 65.00
17 19 77.00
17 20 51.00
17 21 29.00
17 22 57.00
17 23 105.00
17 24 141.00
17 25 222.00
17 26 240.00
17 27 217.00
17 28 129.00
17 29 96.00
17 30 20.00
17 31 41.00
17 32 226.00
17 33 73.00
17 34 68.00
17 35 68.00
17 36 89.00
17 37 95.00
17 38 76.00
17 39 86.00
17 40 83.00
17 41 123.00
17 42 135.00
17 43 79.00
17 44 57.00
17 45 110.00
17 46 237.00
17 47 104.00
17 48 48.00
17 49 82.00
17 50 232.00
17 51 345.00
18 0 76.00
18 1 211.00
18 2 52.00
18 3 119.00
18 4 100.00
18 5 107.00
18 6 202.00
18 7 31.00
18 8 77.00
18 9 73.00
18 10 281.00
18 11 192.00
18 12 292.00
18 13 335.00
18 14 97.00
18 15 137.00
18 16 105.00
18 17 65.00
18 19 128.00
18 20 115.00
18 21 73.00
18 22 115.00
18 23 103.00
18 24 138.00
18 25 236.00
18 26 246.00
18 27 220.00
18 28 178.00
18 29 158.00
18 30 83.00
18 31 55.00
18 32 175.00
18 33 88.00
18 34 83.00
18 35 79.00
18 36 93.00
18 37 92.00
18 38 80.00
18 39 84.00
18 40 23.00
18 41 185.00
18 42 92.00
18 43 105.00
18 44 19.00
18 45 126.00
18 46 261.00
18 47 104.00
18 48 67.00
18 49 130.00
18 50 211.00
18 51 345.00
19 0 53.00
19 1 141.00
19 2 110.00
19 3 125.00
19 4 102.00
19 5 109.00
19 6 138.00
19 7 159.00
19 8 203.00
19 9 193.00
19 10 269.00
19 11 174.00
19 12 230.00
19 13 259.00
19 14 106.00
19 15 41.00
19 16 128.00
19 17 77.00
19 18 128.00
19 20 70.00
19 21 56.00
19 22 24.00
19 23 95.00
19 24 117.00
19 25 166.00
19 26 190.00
19 27 173.00
19 28 53.00
19 29 47.00
19 30 59.00
19 31 75.00
19 32 248.00
19 33 64.00
19 34 65.00
19 35 69.00
19 36 81.00
19 37 91.00
19 38 78.00
19 39 87.00
19 40 150.00
19 41 119.00
19 42 160.00
19 43 49.00
19 44 113.00
19 45 74.00
19 46 170.00
19 47 91.00
19 48 66.00
19 49 9.00
19 50 215.00
19 51 297.00
20 0 72.00
20 1 98.00
20 2 72.00
20 3 170.00
20 4 144.00
20 5 153.00
20 6 90.00
20 7 145.00
20 8 191.00
20 9 188.00
20 10 329.00
20 11 232.00
20 12 299.00
20 13 328.00
20 14 146.00
20 15 109.00
20 16 63.00
20 17 51.00
20 18 115.00
20 19 70.00
20 21 63.00
20 22 47.00
20 23 140.00
20 24 171.00
20 25 235.00
20 26 258.00
20 27 238.00
20 28 115.00
20 29 60.00
20 30 38.00
20 31 85.00
20 32 274.00
20 33 104.00
20 34 102.00
20 35 103.00
20 36 123.00
20 37 132.00
20 38 113.00
20 39 124.00
20 40 131.00
20 41 72.00
20 42 183.00
20 43 100.00
20 44 108.00
20 45 133.00
20 46 239.00
20 47 137.00
20 48 86.00
20 49 78.00
20 50 268.00
20 51 364.00
21 0 12.00
21 1 159.00
21 2 60.00
21 3 109.00
21 4 83.00
21 5 92.00
21 6 152.00
21 7 104.00
21 8 148.00
21 9 140.00
21 10 271.00
21 11 175.00
21 12 255.00
21 13 291.00
21 14 85.00
21 15 74.00
21 16 96.00
21 17 29.00
21 18 73.00
21 19 56.00
21 20 63.00
21 22 44.00
21 23 79.00
21 24 114.00
21 25 193.00
21 26 211.00
21 27 188.00
21 28 107.00
21 29 88.00
21 30 26.00
21 31 24.00
21 32 213.00
21 33 45.00
21 34 41.00
21 35 42.00
21 36 63.00
21 37 70.00
21 38 52.00
21 39 62.00
21 40 94.00
21 41 134.00
21 42 122.00
21 43 50.00
21 44 58.00
21 45 81.00
21 46 208.00
21 47 78.00
21 48 23.00
21 49 59.00
21 50 208.00
21 51 317.00
22 0 45.00
22 1 127.00
22 2 90.00
22 3 134.00
22 4 109.00
22 5 117.00
22 6 123.00
22 7 147.00
22 8 192.00
22 9 184.00
22 10 286.00
22 11 190.00
22 12 252.00
22 13 282.00
22 14 113.00
22 15 62.00
22 16 105.00
22 17 57.00
22 18 115.00
22 19 24.00
22 20 47.00
22 21 44.00
22 23 103.00
22 24 130.00
22 25 189.00
22 26 211.00
22 27 193.00
22 28 74.00
22 29 45.00
22 30 38.00
22 31 67.00
22 32 250.00
22 33 69.00
22 34 68.00
22 35 71.00
22 36 87.00
22 37 98.00
22 38 81.00
22 39 91.00
22 40 136.00
22 41 104.00
22 42 160.00
22 43 59.00
22 44 102.00
22 45 89.00
22 46 193.00
22 47 100.00
22 48 61.00
22 49 32.00
22 50 229.00
22 51 318.00
23 0 69.00
23 1 230.00
23 2 126.00
23 3 31.00
23 4 8.00
23 5 14.00
23 6 225.00
23 7 122.00
23 8 152.00
23 9 134.00
23 10 193.00
23 11 97.00
23 12 190.00
23 13 233.00
23 14 14.00
23 15 69.00
23 16 173.00
23 17 105.00
23 18 103.00
23 19 95.00
23 20 140.00
23 21 79.00
23 22 103.00
23 24 37.00
23 25 134.00
23 26 144.00
23 27 118.00
23 28 120.00
23 29 142.00
23 30 105.00
23 31 66.00
23 32 155.00
23 33 36.00
23 34 38.00
23 35 38.00
23 36 17.00
23 37 11.00
23 38 29.00
23 39 20.00
23 40 123.00
23 41 206.00
23 42 74.00
23 43 46.00
23 44 85.00
23 45 35.00
23 46 163.00
23 47 4.00
23 48 58.00
23 49 89.00
23 50 129.00
23 51 245.00
24 0 103.00
24 1 257.00
24 2 163.00
24 3 27.00
24 4 38.00
24 5 31.00
24 6 253.00
24 7 154.00
24 8 179.00
24 9 160.00
24 10 158.00
24 11 61.00
24 12 155.00
24 13 200.00
24 14 41.00
24 15 82.00
24 16 209.00
24 17 141.00
24 18 138.00
24 19 117.00
24 20 171.00
24 21 114.00
24 22 130.00
24 23 37.00
24 25 103.00
24 26 109.00
24 27 82.00
24 28 127.00
24 29 164.00
24 30 139.00
24 31 102.00
24 32 151.00
24 33 69.00
24 34 73.00
24 35 73.00
24 36 52.00
24 37 48.00
24 38 65.00
24 39 57.00
24 40 157.00
24 41 234.00
24 42 89.00
24 43 72.00
24 44 120.00
24 45 43.00
24 46 138.00
24 47 37.00
24 48 93.00
24 49 110.00
24 50 98.00
24 51 209.00
25 0 182.00
25 1 298.00
25 2 251.00
25 3 129.00
25 4 138.00
25 5 133.00
25 6 298.00
25 7 256.00
25 8 282.00
25 9 262.00
25 10 135.00
25 11 84.00
25 12 64.00
25 13 99.00
25 14 143.00
25 15 126.00
25 16 287.00
25 17 222.00
25 18 236.00
25 19 166.00
25 20 235.00
25 21 193.00
25 22 189.00
25 23 134.00
25 24 103.00
25 26 32.00
25 27 40.00
25 28 140.00
25 29 201.00
25 30 213.00
25 31 191.00
25 32 229.00
25 33 154.00
25 34 159.00
25 35 161.00
25 36 144.00
25 37 145.00
25 38 158.00
25 39 152.00
25 40 257.00
25 41 280.00
25 42 189.00
25 43 144.00
25 44 218.00
25 45 113.00
25 46 46.00
25 47 133.00
25 48 180.00
25 49 158.00
25 50 124.00
25 51 131.00
26 0 200.00
26 1 325.00
26 2 267.00
26 3 132.00
26 4 146.00
26 5 140.00
26 6 324.00
26 7 262.00
26 8 284.00
26 9 264.00
26 10 104.00
26 11 71.00
26 12 46.00
26 13 94.00
26 14 150.00
26 15 149.00
26 16 307.00
26 17 240.00
26 18 246.00
26 19 190.00
26 20 258.00
26 21 211.00
26 22 211.00
26 23 144.00
26 24 109.00
26 25 32.00
26 27 28.00
26 28 168.00
26 29 228.00
26 30 233.00
26 31 206.00
26 32 215.00
26 33 169.00
26 34 173.00
26 35 175.00
26 36 156.00
26 37 155.00
26 38 170.00
26 39 163.00
26 40 266.00
26 41 307.00
26 42 188.00
26 43 162.00
26 44 228.00
26 45 130.00
26 46 73.00
26 47 143.00
26 48 195.00
26 49 182.00
26 50 103.00
26 51 106.00
27 0 177.00
27 1 311.00
27 2 243.00
27 3 104.00
27 4 120.00
27 5 113.00
27 6 309.00
27 7 235.00
27 8 256.00
27 9 236.00
27 10 104.00
27 11 46.00
27 12 73.00
27 13 121.00
27 14 123.00
27 15 131.00
27 16 284.00
27 17 217.00
27 18 220.00
27 19 173.00
27 20 238.00
27 21 188.00
27 22 193.00
27 23 118.00
27 24 82.00
27 25 40.00
27 26 28.00
27 28 157.00
27 29 213.00
27 30 211.00
27 31 181.00
27 32 192.00
27 33 145.00
27 34 149.00
27 35 151.00
27 36 131.00
27 37 129.00
27 38 145.00
27 39 138.00
27 40 239.00
27 41 291.00
27 42 160.00
27 43 140.00
27 44 202.00
27 45 107.00
27 46 86.00
27 47 117.00
27 48 171.00
27 49 164.00
27 50 84.00
27 51 128.00
28 0 102.00
28 1 159.00
28 2 163.00
28 3 145.00
28 4 127.00
28 5 132.00
28 6 159.00
28 7 208.00
28 8 250.00
28 9 238.00
28 10 261.00
28 11 172.00
28 12 201.00
28 13 222.00
28 14 133.00
28 15 50.00
28 16 177.00
28 17 129.00
28 18 178.00
28 19 53.00
28 20 115.00
28 21 107.00
28 22 74.00
28 23 120.00
28 24 127.00
28 25 140.00
28 26 168.00
28 27 157.00
28 29 65.00
28 30 111.00
28 31 123.00
28 32 274.00
28 33 100.00
28 34 104.00
28 35 108.00
28 36 111.00
28 37 121.00
28 38 115.00
28 39 120.00
28 40 200.00
28 41 143.00
28 42 193.00
28 43 81.00
28 44 161.00
28 45 87.00
28 46 131.00
28 47 116.00
28 48 112.00
28 49 48.00
28 50 218.00
28 51 270.00
29 0 90.00
29 1 98.00
29 2 126.00
29 3 172.00
29 4 149.00
29 5 156.00
29 6 96.00
29 7 190.00
29 8 235.00
29 9 228.00
29 10 313.00
29 11 219.00
29 12 264.00
29 13 287.00
29 14 153.00
29 15 84.00
29 16 123.00
29 17 96.00
29 18 158.00
29 19 47.00
29 20 60.00
29 21 88.00
29 22 45.00
29 23 142.00
29 24 164.00
29 25 201.00
29 26 228.00
29 27 213.00
29 28 65.00
29 30 76.00
29 31 112.00
29 32 293.00
29 33 110.00
29 34 110.00
29 35 113.00
29 36 127.00
29 37 138.00
29 38 124.00
29 39 133.00
29 40 178.00
29 41 79.00
29 42 204.00
29 43 96.00
29 44 146.00
29 45 120.00
29 46 196.00
29 47 138.00
29 48 106.00
29 49 54.00
29 50 261.00
29 51 333.00
30 0 37.00
30 1 135.00
30 2 52.00
30 3 135.00
30 4 109.00
30 5 118.00
30 6 128.00
30 7 114.00
30 8 160.00
30 9 155.00
30 10 297.00
30 11 200.00
30 12 276.00
30 13 310.00
30 14 111.00
30 15 89.00
30 16 74.00
30 17 20.00
30 18 83.00
30 19 59.00
30 20 38.00
30 21 26.00
30 22 38.00
30 23 105.00
30 24 139.00
30 25 213.00
30 26 233.00
30 27 211.00
30 28 111.00
30 29 76.00
30 31 48.00
30 32 237.00
30 33 70.00
30 34 67.00
30 35 68.00
30 36 89.00
30 37 96.00
30 38 78.00
30 39 88.00
30 40 102.00
30 41 110.00
30 42 146.00
30 43 71.00
30 44 73.00
30 45 104.00
30 46 224.00
30 47 103.00
30 48 49.00
30 49 66.00
30 50 234.00
30 51 339.00
31 0 23.00
31 1 182.00
31 2 61.00
31 3 93.00
31 4 68.00
31 5 76.00
31 6 175.00
31 7 85.00
31 8 128.00
31 9 118.00
31 10 258.00
31 11 163.00
31 12 251.00
31 13 290.00
31 14 68.00
31 15 83.00
31 16 108.00
31 17 41.00
31 18 55.00
31 19 75.00
31 20 85.00
31 21 24.00
31 22 67.00
31 23 66.00
31 24 102.00
31 25 191.00
31 26 206.00
31 27 181.00
31 28 123.00
31 29 112.00
31 30 48.00
31 32 190.00
31 33 38.00
31 34 33.00
31 35 31.00
31 36 51.00
31 37 55.00
31 38 37.00
31 39 46.00
31 40 78.00
31 41 157.00
31 42 98.00
31 43 52.00
31 44 38.00
31 45 78.00
31 46 211.00
31 47 65.00
31 48 12.00
31 49 76.00
31 50 192.00
31 51 310.00
32 0 207.00
32 1 372.00
32 2 226.00
32 3 129.00
32 4 147.00
32 5 142.00
32 6 365.00
32 7 161.00
32 8 143.00
32 9 125.00
32 10 177.00
32 11 146.00
32 12 253.00
32 13 304.00
32 14 142.00
32 15 224.00
32 16 280.00
32 17 226.00
32 18 175.00
32 19 248.00
32 20 274.00
32 21 213.00
32 22 250.00
32 23 155.00
32 24 151.00
32 25 229.00
32 26 215.00
32 27 192.00
32 28 274.00
32 29 293.00
32 30 237.00
32 31 190.00
32 33 184.00
32 34 183.00
32 35 180.00
32 36 167.00
32 37 156.00
32 38 170.00
32 39 161.00
32 40 176.00
32 41 347.00
32 42 91.00
32 43 200.00
32 44 172.00
32 45 187.00
32 46 274.00
32 47 159.00
32 48 191.00
32 49 243.00
32 50 119.00
32 51 272.00
33 0 34.00
33 1 196.00
33 2 98.00
33 3 67.00
33 4 41.00
33 5 49.00
33 6 190.00
33 7 114.00
33 8 152.00
33 9 138.00
33 10 226.00
33 11 130.00
33 12 214.00
33 13 252.00
33 14 44.00
33 15 53.00
33 16 140.00
33 17 73.00
33 18 88.00
33 19 64.00
33 20 104.00
33 21 45.00
33 22 69.00
33 23 36.00
33 24 69.00
33 25 154.00
33 26 169.00
33 27 145.00
33 28 100.00
33 29 110.00
33 30 70.00
33 31 38.00
33 32 184.00
33 34 5.00
33 35 8.00
33 36 19.00
33 37 29.00
33 38 15.00
33 39 23.00
33 40 110.00
33 41 171.00
33 42 96.00
33 43 20.00
33 44 69.00
33 45 40.00
33 46 174.00
33 47 33.00
33 48 26.00
33 49 61.00
33 50 164.00
33 51 273.00
34 0 30.00
34 1 194.00
34 2 93.00
34 3 69.00
34 4 43.00
34 5 51.00
34 6 189.00
34 7 109.00
34 8 147.00
34 9 134.00
34 10 230.00
34 11 134.00
34 12 219.00
34 13 258.00
34 14 45.00
34 15 57.00
34 16 136.00
34 17 68.00
34 18 83.00
34 19 65.00
34 20 102.00
34 21 41.00
34 22 68.00
34 23 38.00
34 24 73.00
34 25 159.00
34 26 173.00
34 27 149.00
34 28 104.00
34 29 110.00
34 30 67.00
34 31 33.00
34 32 183.00
34 33 5.00
34 35 4.00
34 36 22.00
34 37 30.00
34 38 13.00
34 39 23.00
34 40 105.00
34 41 170.00
34 42 94.00
34 43 24.00
34 44 64.00
34 45 46.00
34 46 180.00
34 47 36.00
34 48 21.00
34 49 63.00
34 50 167.00
34 51 278.00
35 0 31.00
35 1 196.00
35 2 92.00
35 3 68.00
35 4 42.00
35 5 50.00
35 6 190.00
35 7 105.00
35 8 144.00
35 9 130.00
35 10 230.00
35 11 134.00
35 12 220.00
35 13 260.00
35 14 44.00
35 15 61.00
35 16 136.00
35 17 68.00
35 18 79.00
35 19 69.00
35 20 103.00
35 21 42.00
35 22 71.00
35 23 38.00
35 24 73.00
35 25 161.00
35 26 175.00
35 27 151.00
35 28 108.00
35 29 113.00
35 30 68.00
35 31 31.00
35 32 180.00
35 33 8.00
35 34 4.00
35 36 21.00
35 37 29.00
35 38 11.00
35 39 21.00
35 40 102.00
35 41 172.00
35 42 91.00
35 43 28.00
35 44 61.00
35 45 48.00
35 46 182.00
35 47 36.00
35 48 20.00
35 49 66.00
35 50 166.00
35 51 279.00
36 0 52.00
36 1 214.00
36 2 112.00
36 3 48.00
36 4 22.00
36 5 30.00
36 6 209.00
36 7 115.00
36 8 149.00
36 9 133.00
36 10 209.00
36 11 113.00
36 12 202.00
36 13 243.00
36 14 26.00
36 15 61.00
36 16 157.00
36 17 89.00
36 18 93.00
36 19 81.00
36 20 123.00
36 21 63.00
36 22 87.00
36 23 17.00
36 24 52.00
36 25 144.00
36 26 156.00
36 27 131.00
36 28 111.00
36 29 127.00
36 30 89.00
36 31 51.00
36 32 167.00
36 33 19.00
36 34 22.00
36 35 21.00
36 37 11.00
36 38 14.00
36 39 10.00
36 40 114.00
36 41 190.00
36 42 82.00
36 43 33.00
36 44 74.00
36 45 35.00
36 46 169.00
36 47 15.00
36 48 41.00
36 49 76.00
36 50 145.00
36 51 259.00
37 0 60.00
37 1 224.00
37 2 116.00
37 3 39.00
37 4 13.00
37 5 22.00
37 6 219.00
37 7 112.00
37 8 143.00
37 9 127.00
37 10 203.00
37 11 107.00
37 12 201.00
37 13 244.00
37 14 15.00
37 15 71.00
37 16 163.00
37 17 95.00
37 18 92.00
37 19 91.00
37 20 132.00
37 21 70.00
37 22 98.00
37 23 11.00
37 24 48.00
37 25 145.00
37 26 155.00
37 27 129.00
37 28 121.00
37 29 138.00
37 30 96.00
37 31 55.00
37 32 156.00
37 33 29.00
37 34 30.00
37 35 29.00
37 36 11.00
37 38 19.00
37 39 9.00
37 40 112.00
37 41 200.00
37 42 72.00
37 43 43.00
37 44 74.00
37 45 41.00
37 46 173.00
37 47 12.00
37 48 48.00
37 49 87.00
37 50 138.00
37 51 257.00
38 0 42.00
38 1 207.00
38 2 98.00
38 3 58.00
38 4 32.00
38 5 40.00
38 6 201.00
38 7 103.00
38 8 139.00
38 9 125.00
38 10 221.00
38 11 126.00
38 12 216.00
38 13 257.00
38 14 33.00
38 15 66.00
38 16 144.00
38 17 76.00
38 18 80.00
38 19 78.00
38 20 113.00
38 21 52.00
38 22 81.00
38 23 29.00
38 24 65.00
38 25 158.00
38 26 170.00
38 27 145.00
38 28 115.00
38 29 124.00
38 30 78.00
38 31 37.00
38 32 170.00
38 33 15.00
38 34 13.00
38 35 11.00
38 36 14.00
38 37 19.00
38 39 11.00
38 40 102.00
38 41 182.00
38 42 81.00
38 43 34.00
38 44 61.00
38 45 47.00
38 46 182.00
38 47 28.00
38 48 29.00
38 49 76.00
38 50 157.00
38 51 273.00
39 0 52.00
39 1 217.00
39 2 107.00
39 3 47.00
39 4 21.00
39 5 30.00
39 6 212.00
39 7 105.00
39 8 139.00
39 9 123.00
39 10 211.00
39 11 116.00
39 12 209.00
39 13 251.00
39 14 23.00
39 15 71.00
39 16 154.00
39 17 86.00
39 18 84.00
39 19 87.00
39 20 124.00
39 21 62.00
39 22 91.00
39 23 20.00
39 24 57.00
39 25 152.00
39 26 163.00
39 27 138.00
39 28 120.00
39 29 133.00
39 30 88.00
39 31 46.00
39 32 161.00
39 33 23.00
39 34 23.00
39 35 21.00
39 36 10.00
39 37 9.00
39 38 11.00
39 40 105.00
39 41 193.00
39 42 73.00
39 43 40.00
39 44 66.00
39 45 45.00
39 46 179.00
39 47 20.00
39 48 39.00
39 49 83.00
39 50 146.00
39 51 265.00
40 0 99.00
40 1 224.00
40 2 62.00
40 3 136.00
40 4 120.00
40 5 126.00
40 6 214.00
40 7 16.00
40 8 60.00
40 9 61.00
40 10 295.00
40 11 209.00
40 12 312.00
40 13 356.00
40 14 116.00
40 15 160.00
40 16 111.00
40 17 83.00
40 18 23.00
40 19 150.00
40 20 131.00
40 21 94.00
40 22 136.00
40 23 123.00
40 24 157.00
40 25 257.00
40 26 266.00
40 27 239.00
40 28 200.00
40 29 178.00
40 30 102.00
40 31 78.00
40 32 176.00
40 33 110.00
40 34 105.00
40 35 102.00
40 36 114.00
40 37 112.00
40 38 102.00
40 39 105.00
40 41 199.00
40 42 100.00
40 43 128.00
40 44 41.00
40 45 148.00
40 46 283.00
40 47 125.00
40 48 90.00
40 49 153.00
40 50 224.00
40 51 363.00
41 0 141.00
41 1 26.00
41 2 138.00
41 3 238.00
41 4 212.00
41 5 220.00
41 6 19.00
41 7 214.00
41 8 259.00
41 9 258.00
41 10 388.00
41 11 292.00
41 12 343.00
41 13 364.00
41 14 215.00
41 15 160.00
41 16 102.00
41 17 123.00
41 18 185.00
41 19 119.00
41 20 72.00
41 21 134.00
41 22 104.00
41 23 206.00
41 24 234.00
41 25 280.00
41 26 307.00
41 27 291.00
41 28 143.00
41 29 79.00
41 30 110.00
41 31 157.00
41 32 347.00
41 33 171.00
41 34 170.00
41 35 172.00
41 36 190.00
41 37 200.00
41 38 182.00
41 39 193.00
41 40 199.00
41 42 255.00
41 43 163.00
41 44 180.00
41 45 192.00
41 46 273.00
41 47 204.00
41 48 157.00
41 49 127.00
41 50 332.00
41 51 411.00
42 0 116.00
42 1 281.00
42 2 139.00
42 3 61.00
42 4 67.00
42 5 65.00
42 6 274.00
42 7 90.00
42 8 97.00
42 9 77.00
42 10 197.00
42 11 121.00
42 12 233.00
42 13 281.00
42 14 60.00
42 15 143.00
42 16 193.00
42 17 135.00
42 18 92.00
42 19 160.00
42 20 183.00
42 21 122.00
42 22 160.00
42 23 74.00
42 24 89.00
42 25 189.00
42 26 188.00
42 27 160.00
42 28 193.00
42 29 204.00
42 30 146.00
42 31 98.00
42 32 91.00
42 33 96.00
42 34 94.00
42 35 91.00
42 36 82.00
42 37 72.00
42 38 81.00
42 39 73.00
42 40 100.00
42 41 255.00
42 43 114.00
42 44 84.00
42 45 109.00
42 46 226.00
42 47 78.00
42 48 100.00
42 49 157.00
42 50 126.00
42 51 274.00
43 0 39.00
43 1 186.00
43 2 109.00
43 3 77.00
43 4 53.00
43 5 60.00
43 6 182.00
43 7 132.00
43 8 171.00
43 9 158.00
43 10 228.00
43 11 132.00
43 12 205.00
43 13 242.00
43 14 58.00
43 15 33.00
43 16 145.00
43 17 79.00
43 18 105.00
43 19 49.00
43 20 100.00
43 21 50.00
43 22 59.00
43 23 46.00
43 24 72.00
43 25 144.00
43 26 162.00
43 27 140.00
43 28 81.00
43 29 96.00
43 30 71.00
43 31 52.00
43 32 200.00
43 33 20.00
43 34 24.00
43 35 28.00
43 36 33.00
43 37 43.00
43 38 34.00
43 39 40.00
43 40 128.00
43 41 163.00
43 42 114.00
43 44 87.00
43 45 33.00
43 46 160.00
43 47 43.00
43 48 39.00
43 49 44.00
43 50 170.00
43 51 268.00
44 0 60.00
44 1 206.00
44 2 55.00
44 3 103.00
44 4 83.00
44 5 90.00
44 6 197.00
44 7 47.00
44 8 90.00
44 9 82.00
44 10 267.00
44 11 176.00
44 12 275.00
44 13 317.00
44 14 80.00
44 15 119.00
44 16 109.00
44 17 57.00
44 18 19.00
44 19 113.00
44 20 108.00
44 21 58.00
44 22 102.00
44 23 85.00
44 24 120.00
44 25 218.00
44 26 228.00
44 27 202.00
44 28 161.00
44 29 146.00
44 30 73.00
44 31 38.00
44 32 172.00
44 33 69.00
44 34 64.00
44 35 61.00
44 36 74.00
44 37 74.00
44 38 61.00
44 39 66.00
44 40 41.00
44 41 180.00
44 42 84.00
44 43 87.00
44 45 107.00
44 46 242.00
44 47 86.00
44 48 49.00
44 49 114.00
44 50 198.00
44 51 329.00
45 0 70.00
45 1 215.00
45 2 138.00
45 3 58.00
45 4 43.00
45 5 46.00
45 6 211.00
45 7 150.00
45 8 183.00
45 9 167.00
45 10 197.00
45 11 100.00
45 12 174.00
45 13 212.00
45 14 49.00
45 15 39.00
45 16 177.00
45 17 110.00
45 18 126.00
45 19 74.00
45 20 133.00
45 21 81.00
45 22 89.00
45 23 35.00
45 24 43.00
45 25 113.00
45 26 130.00
45 27 107.00
45 28 87.00
45 29 120.00
45 30 104.00
45 31 78.00
45 32 187.00
45 33 40.00
45 34 46.00
45 35 48.00
45 36 35.00
45 37 41.00
45 38 47.00
45 39 45.00
45 40 148.00
45 41 192.00
45 42 109.00
45 43 33.00
45 44 107.00
45 46 135.00
45 47 31.00
45 48 66.00
45 49 67.00
45 50 141.00
45 51 235.00
46 0 198.00
46 1 288.00
46 2 268.00
46 3 165.00
46 4 168.00
46 5 165.00
46 6 289.00
46 7 284.00
46 8 314.00
46 9 296.00
46 10 176.00
46 11 129.00
46 12 81.00
46 13 91.00
46 14 174.00
46 15 135.00
46 16 297.00
46 17 237.00
46 18 261.00
46 19 170.00
46 20 239.00
46 21 208.00
46 22 193.00
46 23 163.00
46 24 138.00
46 25 46.00
46 26 73.00
46 27 86.00
46 28 131.00
46 29 196.00
46 30 224.00
46 31 211.00
46 32 274.00
46 33 174.00
46 34 180.00
46 35 182.00
46 36 169.00
46 37 173.00
46 38 182.00
46 39 179.00
46 40 283.00
46 41 273.00
46 42 226.00
46 43 160.00
46 44 242.00
46 45 135.00
46 47 161.00
46 48 199.00
46 49 162.00
46 50 170.00
46 51 149.00
47 0 67.00
47 1 228.00
47 2 126.00
47 3 34.00
47 4 12.00
47 5 18.00
47 6 223.00
47 7 124.00
47 8 154.00
47 9 138.00
47 10 194.00
47 11 98.00
47 12 189.00
47 13 231.00
47 14 18.00
47 15 65.00
47 16 172.00
47 17 104.00
47 18 104.00
47 19 91.00
47 20 137.00
47 21 78.00
47 22 100.00
47 23 4.00
47 24 37.00
47 25 133.00
47 26 143.00
47 27 117.00
47 28 116.00
47 29 138.00
47 30 103.00
47 31 65.00
47 32 159.00
47 33 33.00
47 34 36.00
47 35 36.00
47 36 15.00
47 37 12.00
47 38 28.00
47 39 20.00
47 40 125.00
47 41 204.00
47 42 78.00
47 43 43.00
47 44 86.00
47 45 31.00
47 46 161.00
47 48 56.00
47 49 86.00
47 50 131.00
47 51 245.00
48 0 16.00
48 1 182.00
48 2 72.00
48 3 86.00
48 4 60.00
48 5 69.00
48 6 175.00
48 7 96.00
48 8 138.00
48 9 127.00
48 10 250.00
48 11 154.00
48 12 240.00
48 13 278.00
48 14 62.00
48 15 70.00
48 16 115.00
48 17 48.00
48 18 67.00
48 19 66.00
48 20 86.00
48 21 23.00
48 22 61.00
48 23 58.00
48 24 93.00
48 25 180.00
48 26 195.00
48 27 171.00
48 28 112.00
48 29 106.00
48 30 49.00
48 31 12.00
48 32 191.00
48 33 26.00
48 34 21.00
48 35 20.00
48 36 41.00
48 37 48.00
48 38 29.00
48 39 39.00
48 40 90.00
48 41 157.00
48 42 100.00
48 43 39.00
48 44 49.00
48 45 66.00
48 46 199.00
48 47 56.00
48 49 66.00
48 50 185.00
48 51 299.00
49 0 54.00
49 1 149.00
49 2 116.00
49 3 119.00
49 4 97.00
49 5 103.00
49 6 146.00
49 7 161.00
49 8 204.00
49 9 193.00
49 10 261.00
49 11 166.00
49 12 221.00
49 13 250.00
49 14 102.00
49 15 33.00
49 16 136.00
49 17 82.00
49 18 130.00
49 19 9.00
49 20 78.00
49 21 59.00
49 22 32.00
49 23 89.00
49 24 110.00
49 25 158.00
49 26 182.00
49 27 164.00
49 28 48.00
49 29 54.00
49 30 66.00
49 31 76.00
49 32 243.00
49 33 61.00
49 34 63.00
49 35 66.00
49 36 76.00
49 37 87.00
49 38 76.00
49 39 83.00
49 40 153.00
49 41 127.00
49 42 157.00
49 43 44.00
49 44 114.00
49 45 67.00
49 46 162.00
49 47 86.00
49 48 66.00
49 50 207.00
49 51 288.00
50 0 197.00
50 1 355.00
50 2 249.00
50 3 99.00
50 4 125.00
50 5 116.00
50 6 351.00
50 7 215.00
50 8 221.00
50 9 200.00
50 10 71.00
50 11 47.00
50 12 135.00
50 13 186.00
50 14 124.00
50 15 178.00
50 16 299.00
50 17 232.00
50 18 211.00
50 19 215.00
50 20 268.00
50 21 208.00
50 22 229.00
50 23 129.00
50 24 98.00
50 25 124.00
50 26 103.00
50 27 84.00
50 28 218.00
50 29 261.00
50 30 234.00
50 31 192.00
50 32 119.00
50 33 164.00
50 34 167.00
50 35 166.00
50 36 145.00
50 37 138.00
50 38 157.00
50 39 146.00
50 40 224.00
50 41 332.00
50 42 126.00
50 43 170.00
50 44 198.00
50 45 141.00
50 46 170.00
50 47 131.00
50 48 185.00
50 49 207.00
50 51 156.00
51 0 305.00
51 1 429.00
51 2 371.00
51 3 227.00
51 4 246.00
51 5 239.00
51 6 429.00
51 7 358.00
51 8 372.00
51 9 351.00
51 10 100.00
51 11 155.00
51 12 70.00
51 13 80.00
51 14 249.00
51 15 256.00
51 16 412.00
51 17 345.00
51 18 345.00
51 19 297.00
51 20 364.00
51 21 317.00
51 22 318.00
51 23 245.00
51 24 209.00
51 25 131.00
51 26 106.00
51 27 128.00
51 28 270.00
51 29 333.00
51 30 339.00
51 31 310.00
51 32 272.00
51 33 273.00
51 34 278.00
51 35 279.00
51 36 259.00
51 37 257.00
51 38 273.00
51 39 265.00
51 40 363.00
51 41 411.00
51 42 274.00
51 43 268.00
51 44 329.00
51 45 235.00
51 46 149.00
51 47 245.00
51 48 299.00
51 49 288.00
51 50 156.00
;

set T := 0, 1, 3, 9, 10, 12, 16, 24, 37, 38, 45, 46;

param t0 := 0;

end;
